networks/zoo_65_212/zoo_65_212-lower.txt
Number of groups: 25
Flow 1: {3 25 0} {25 4 0} {4 5 0} {5 38 0} 
Flow 2: {3 22 0} {22 21 0} {21 8 0} {8 41 0} 
Flow 3: {21 9 0} {9 42 0} 
Flow 4: {22 14 0} {14 47 0} 
Flow 5: {22 20 0} {20 53 0} 
Flow 6: {21 54 0} 
Flow 7: {22 55 0} 
Flow 8: {25 58 0} 
Flow 9: {22 31 0} {31 32 0} {32 65 0} 
Flow 10: {25 1 0} {1 34 0} 
Flow 10: {4 25 0} Flow 12: {1 7 0} {7 40 0} 
Flow 13: {5 21 0} Flow 15: {25 22 0} Flow 16: {8 17 0} {17 50 0} 
Flow 20: {25 24 0} {24 57 0} 
Flow 22: {9 26 0} {26 59 0} 
Flow 23: {31 64 0} 
Flow 26: {5 4 0} Flow 27: {6 21 0} Flow 28: {7 8 0} {8 21 0} {21 5 0} Flow 31: {7 1 0} {1 25 0} Flow 33: {21 20 0} Flow 40: {8 7 0} Flow 42: {21 6 0} {6 39 0} 
Flow 45: {21 11 0} {11 14 0} Flow 47: {17 18 0} {18 51 0} 
Flow 50: {21 22 0} Flow 54: {22 29 0} {29 62 0} 
Flow 57: {9 21 0} Flow 59: {9 6 0} Flow 67: {22 25 0} Flow 73: {10 21 0} Flow 74: {11 21 0} Flow 75: {12 22 0} Flow 77: {14 11 0} Flow 78: {14 22 0} Flow 80: {16 17 0} {17 8 0} Flow 83: {7 2 0} {2 35 0} 
Flow 84: {22 3 0} {3 36 0} 
Flow 90: {21 10 0} {10 43 0} 
Flow 91: {22 12 0} {12 45 0} 
Flow 103: {18 19 0} {19 21 0} Flow 110: {20 21 0} Flow 113: {20 22 0} Flow 131: {23 17 0} Flow 135: {1 2 0} Flow 136: {25 3 0} Flow 146: {21 19 0} {19 18 0} Flow 150: {17 23 0} {23 56 0} 
Flow 153: {22 28 0} {28 61 0} 
Flow 155: {22 30 0} {30 63 0} 
Flow 158: {26 9 0} Flow 161: {27 28 0} {28 22 0} Flow 162: {27 26 0} Flow 180: {29 22 0} Flow 194: {30 22 0} Flow 197: {32 31 0} {31 22 0} Flow 207: {32 33 0} {33 24 0} Flow 210: {24 25 0} Time taken running everything: 0 seconds
