networks/zoo_65_212/zoo_65_212-lower.sol
<?xml version = "1.0" encoding="UTF-8" standalone="yes"?>
<CPLEXSolution version="1.2">
 <header
   problemName="networks/zoo_65_212/zoo_65_212-lower.lp"
   solutionName="incumbent"
   solutionIndex="-1"
   objectiveValue="25"
   solutionTypeValue="3"
   solutionTypeString="primal"
   solutionStatusValue="101"
   solutionStatusString="integer optimal solution"
   solutionMethodString="mip"
   primalFeasible="1"
   dualFeasible="1"
   MIPNodes="0"
   MIPIterations="0"
   writeLevel="3"/>
 <quality
   epInt="1.0000000000000001e-05"
   epRHS="9.9999999999999995e-07"
   maxIntInfeas="0"
   maxPrimalInfeas="0"
   maxX="1"
   maxSlack="1"/>
 <variables>
  <variable name="Y(1,5)" index="4" value="1"/>
  <variable name="Y(2,8)" index="63" value="1"/>
  <variable name="Y(3,9)" index="120" value="1"/>
  <variable name="Y(4,14)" index="180" value="1"/>
  <variable name="Y(5,20)" index="241" value="1"/>
  <variable name="Y(6,21)" index="298" value="1"/>
  <variable name="Y(7,22)" index="355" value="1"/>
  <variable name="Y(8,25)" index="414" value="1"/>
  <variable name="Y(9,32)" index="477" value="1"/>
  <variable name="Y(10,1)" index="504" value="1"/>
  <variable name="Y(12,7)" index="622" value="1"/>
  <variable name="Y(16,17)" index="854" value="1"/>
  <variable name="Y(20,24)" index="1085" value="1"/>
  <variable name="Y(22,26)" index="1199" value="1"/>
  <variable name="Y(23,31)" index="1260" value="1"/>
  <variable name="Y(42,6)" index="2301" value="1"/>
  <variable name="Y(47,18)" index="2591" value="1"/>
  <variable name="Y(54,29)" index="2994" value="1"/>
  <variable name="Y(83,2)" index="4593" value="1"/>
  <variable name="Y(84,3)" index="4650" value="1"/>
  <variable name="Y(90,10)" index="4993" value="1"/>
  <variable name="Y(91,12)" index="5051" value="1"/>
  <variable name="Y(150,23)" index="8364" value="1"/>
  <variable name="Y(153,28)" index="8537" value="1"/>
  <variable name="Y(155,30)" index="8651" value="1"/>
  <variable name="X(1,2,135)" index="12006" value="1"/>
  <variable name="X(1,7,12)" index="12095" value="1"/>
  <variable name="X(1,25,31)" index="12326" value="1"/>
  <variable name="X(1,34,10)" index="12517" value="1"/>
  <variable name="X(2,35,83)" index="12802" value="1"/>
  <variable name="X(3,22,2)" index="12933" value="1"/>
  <variable name="X(3,25,1)" index="13144" value="1"/>
  <variable name="X(3,36,84)" index="13439" value="1"/>
  <variable name="X(4,5,1)" index="13568" value="1"/>
  <variable name="X(4,25,10)" index="13789" value="1"/>
  <variable name="X(5,4,26)" index="14017" value="1"/>
  <variable name="X(5,21,13)" index="14216" value="1"/>
  <variable name="X(5,38,1)" index="14416" value="1"/>
  <variable name="X(6,21,27)" index="14654" value="1"/>
  <variable name="X(6,39,42)" index="14881" value="1"/>
  <variable name="X(7,1,31)" index="15082" value="1"/>
  <variable name="X(7,2,83)" index="15346" value="1"/>
  <variable name="X(7,8,28)" index="15503" value="1"/>
  <variable name="X(7,40,12)" index="15699" value="1"/>
  <variable name="X(8,7,40)" index="15939" value="1"/>
  <variable name="X(8,17,16)" index="16127" value="1"/>
  <variable name="X(8,21,28)" index="16351" value="1"/>
  <variable name="X(8,41,2)" index="16537" value="1"/>
  <variable name="X(9,6,59)" index="16806" value="1"/>
  <variable name="X(9,21,57)" index="17016" value="1"/>
  <variable name="X(9,26,22)" index="17193" value="1"/>
  <variable name="X(9,42,3)" index="17386" value="1"/>
  <variable name="X(10,21,73)" index="17668" value="1"/>
  <variable name="X(10,43,90)" index="17897" value="1"/>
  <variable name="X(11,14,45)" index="18064" value="1"/>
  <variable name="X(11,21,74)" index="18305" value="1"/>
  <variable name="X(12,22,75)" index="18518" value="1"/>
  <variable name="X(12,45,91)" index="18746" value="1"/>
  <variable name="X(14,11,77)" index="18944" value="1"/>
  <variable name="X(14,22,78)" index="19157" value="1"/>
  <variable name="X(14,47,4)" index="19295" value="1"/>
  <variable name="X(16,17,80)" index="19583" value="1"/>
  <variable name="X(17,8,80)" index="19795" value="1"/>
  <variable name="X(17,18,47)" index="19974" value="1"/>
  <variable name="X(17,23,150)" index="20289" value="1"/>
  <variable name="X(17,50,16)" index="20367" value="1"/>
  <variable name="X(18,19,103)" index="20666" value="1"/>
  <variable name="X(18,51,47)" index="20822" value="1"/>
  <variable name="X(19,18,146)" index="21133" value="1"/>
  <variable name="X(19,21,103)" index="21302" value="1"/>
  <variable name="X(20,21,110)" index="21521" value="1"/>
  <variable name="X(20,22,113)" index="21736" value="1"/>
  <variable name="X(20,53,5)" index="21840" value="1"/>
  <variable name="X(21,5,28)" index="22075" value="1"/>
  <variable name="X(21,6,42)" index="22301" value="1"/>
  <variable name="X(21,8,2)" index="22473" value="1"/>
  <variable name="X(21,9,3)" index="22686" value="1"/>
  <variable name="X(21,10,90)" index="22985" value="1"/>
  <variable name="X(21,11,45)" index="23152" value="1"/>
  <variable name="X(21,19,146)" index="23465" value="1"/>
  <variable name="X(21,20,33)" index="23564" value="1"/>
  <variable name="X(21,22,50)" index="23793" value="1"/>
  <variable name="X(21,54,6)" index="23961" value="1"/>
  <variable name="X(22,3,84)" index="24251" value="1"/>
  <variable name="X(22,12,91)" index="24470" value="1"/>
  <variable name="X(22,14,4)" index="24595" value="1"/>
  <variable name="X(22,20,5)" index="24808" value="1"/>
  <variable name="X(22,21,2)" index="25017" value="1"/>
  <variable name="X(22,25,67)" index="25294" value="1"/>
  <variable name="X(22,28,153)" index="25592" value="1"/>
  <variable name="X(22,29,54)" index="25705" value="1"/>
  <variable name="X(22,30,155)" index="26018" value="1"/>
  <variable name="X(22,31,9)" index="26084" value="1"/>
  <variable name="X(22,55,7)" index="26294" value="1"/>
  <variable name="X(23,17,131)" index="26630" value="1"/>
  <variable name="X(23,56,150)" index="26861" value="1"/>
  <variable name="X(24,25,210)" index="27133" value="1"/>
  <variable name="X(24,57,20)" index="27155" value="1"/>
  <variable name="X(25,1,10)" index="27357" value="1"/>
  <variable name="X(25,3,136)" index="27695" value="1"/>
  <variable name="X(25,4,1)" index="27772" value="1"/>
  <variable name="X(25,22,15)" index="27998" value="1"/>
  <variable name="X(25,24,20)" index="28215" value="1"/>
  <variable name="X(25,58,8)" index="28415" value="1"/>
  <variable name="X(26,9,158)" index="28777" value="1"/>
  <variable name="X(26,59,22)" index="28853" value="1"/>
  <variable name="X(27,26,162)" index="29205" value="1"/>
  <variable name="X(27,28,161)" index="29416" value="1"/>
  <variable name="X(28,22,161)" index="29628" value="1"/>
  <variable name="X(28,61,153)" index="29832" value="1"/>
  <variable name="X(29,22,180)" index="30071" value="1"/>
  <variable name="X(29,62,54)" index="30157" value="1"/>
  <variable name="X(30,22,194)" index="30509" value="1"/>
  <variable name="X(30,63,155)" index="30682" value="1"/>
  <variable name="X(31,22,197)" index="30936" value="1"/>
  <variable name="X(31,32,9)" index="30960" value="1"/>
  <variable name="X(31,64,23)" index="31186" value="1"/>
  <variable name="X(32,31,197)" index="31572" value="1"/>
  <variable name="X(32,33,207)" index="31794" value="1"/>
  <variable name="X(32,65,9)" index="31808" value="1"/>
  <variable name="X(33,24,207)" index="32218" value="1"/>
 </variables>
</CPLEXSolution>
